Version identifier: 20.1.0.0 | 2020-11-10 | 9bedb6d68
CPXPARAM_Threads                                 1
CPXPARAM_TimeLimit                               7200
CPXPARAM_MIP_Tolerances_MIPGap                   0
Generic callback                                 0x60
1 of 1 MIP starts provided solutions.
MIP start 'm1' defined initial solution with objective 1351.8157.
Tried aggregator 1 time.
Reduced MIP has 1 rows, 1001 columns, and 1000 nonzeros.
Reduced MIP has 1000 binaries, 0 generals, 0 SOSs, and 0 indicators.
Presolve time = 0.00 sec. (0.30 ticks)
Probing time = 0.00 sec. (0.11 ticks)
Tried aggregator 1 time.
Reduced MIP has 1 rows, 1001 columns, and 1000 nonzeros.
Reduced MIP has 1000 binaries, 0 generals, 0 SOSs, and 0 indicators.
Presolve time = 0.00 sec. (0.31 ticks)
Probing time = 0.00 sec. (0.11 ticks)
MIP emphasis: balance optimality and feasibility.
MIP search method: dynamic search.
Parallel mode: none, using 1 thread.
Root relaxation solution time = 0.00 sec. (0.21 ticks)

        Nodes                                         Cuts/
   Node  Left     Objective  IInf  Best Integer    Best Bound    ItCnt     Gap

*     0+    0                         1351.8157     2716.0000           100.91%
      0     0     1760.1395     2     1351.8157     2716.0000        0  100.91%
      0     0     1662.8277     3     1351.8157 UserPurge2: 1       12   23.01%
      0     0     1601.0970     5     1351.8157 UserPurge2: 1       27   18.44%
      0     0     1546.3122     5     1351.8157 UserPurge2: 1       41   14.39%
      0     0     1529.3178     7     1351.8157 UserPurge1: 1       45   13.13%
      0     0     1503.5100     7     1351.8157 UserPurge2: 1       61   11.22%
      0     0     1489.2526     9     1351.8157 UserPurge2: 1       85   10.17%
      0     0     1469.4679    10     1351.8157 UserPurge2: 1      104    8.70%
      0     0     1461.1312    11     1351.8157 UserPurge2: 1      131    8.09%
      0     0     1457.7267    11     1351.8157 UserPurge2: 1      151    7.83%
      0     0     1451.3053    11     1351.8157 UserPurge2: 1      170    7.36%
      0     0     1450.2590    13     1351.8157 UserPurge1: 1      173    7.28%
      0     0     1447.5152    13     1351.8157 UserPurge2: 1      185    7.08%
      0     0     1443.0705    15     1351.8157 UserPurge2: 1      220    6.75%
      0     0     1441.6410    15     1351.8157 UserPurge1: 1      225    6.64%
      0     0     1439.7671    14     1351.8157 UserPurge1: 1      232    6.51%
      0     0     1439.0936    16     1351.8157 UserPurge2: 1      242    6.46%
      0     0     1438.6377    17     1351.8157 UserPurge1: 1      247    6.42%
      0     0     1438.5461    18     1351.8157 UserPurge1: 1      251    6.42%
      0     0     1432.6000    13     1351.8157 UserPurge2: 1      303    5.98%
      0     0     1424.5368    12     1351.8157 UserPurge2: 1      324    5.38%
      0     0     1419.3688    12     1351.8157 UserPurge2: 1      356    5.00%
      0     0     1416.2553    13     1351.8157 UserPurge2: 1      372    4.77%
      0     0     1414.6209    15     1351.8157 UserPurge2: 1      388    4.65%
      0     0     1413.5496    16     1351.8157 UserPurge2: 1      410    4.57%
      0     0     1410.1110    13     1351.8157 UserPurge2: 1      439    4.31%
      0     0     1409.2111    12     1351.8157 UserPurge2: 1      458    4.25%
      0     0     1406.9930    14     1351.8157 UserPurge2: 1      472    4.08%
      0     0     1405.5790    15     1351.8157 UserPurge2: 1      496    3.98%
      0     0     1403.5225    13     1351.8157 UserPurge2: 1      531    3.82%
      0     0     1402.5967    13     1351.8157 UserPurge2: 1      548    3.76%
      0     0     1401.4994    13     1351.8157 UserPurge2: 1      565    3.68%
      0     0     1400.6731    13     1351.8157 UserPurge2: 1      585    3.61%
      0     0     1399.7887    14     1351.8157 UserPurge2: 1      607    3.55%
      0     0     1398.6755    14     1351.8157 UserPurge2: 1      623    3.47%
      0     0     1398.3623    15     1351.8157 UserPurge2: 1      630    3.44%
      0     0     1398.0659    16     1351.8157 UserPurge2: 1      646    3.42%
      0     0     1397.7468    16     1351.8157 UserPurge2: 1      662    3.40%
      0     0     1397.3083    17     1351.8157 UserPurge2: 1      679    3.37%
      0     0     1396.9936    17     1351.8157 UserPurge2: 1      693    3.34%
      0     0     1396.3899    17     1351.8157 UserPurge2: 1      708    3.30%
      0     0     1395.9728    17     1351.8157 UserPurge2: 1      726    3.27%
      0     0     1394.6913    17     1351.8157 UserPurge2: 1      771    3.17%
      0     0     1393.3945    17     1351.8157 UserPurge2: 1      796    3.08%
      0     0     1392.4135    16     1351.8157 UserPurge2: 1      835    3.00%
      0     0     1391.9245    18     1351.8157 UserPurge2: 1      854    2.97%
      0     0     1391.3126    16     1351.8157 UserPurge2: 1      880    2.92%
      0     0     1390.3607    17     1351.8157 UserPurge2: 1      901    2.85%
      0     0     1389.8807    18     1351.8157 UserPurge2: 1      928    2.82%
      0     0     1389.6647    18     1351.8157 UserPurge2: 1      954    2.80%
      0     0     1389.3778    19     1351.8157 UserPurge2: 1      979    2.78%
      0     0     1388.7482    18     1351.8157 UserPurge2: 1     1009    2.73%
      0     0     1388.5484    18     1351.8157 UserPurge2: 1     1018    2.72%
      0     0     1387.9296    18     1351.8157 UserPurge2: 1     1037    2.67%
      0     0     1387.4259    18     1351.8157 UserPurge2: 1     1059    2.63%
      0     0     1386.8594    19     1351.8157 UserPurge2: 1     1080    2.59%
      0     0     1386.3387    19     1351.8157 UserPurge2: 1     1091    2.55%
      0     0     1385.4829    19     1351.8157 UserPurge2: 1     1107    2.49%
      0     0     1385.2148    19     1351.8157 UserPurge2: 1     1123    2.47%
      0     0     1384.9000    19     1351.8157 UserPurge2: 1     1140    2.45%
      0     0     1383.9904    18     1351.8157 UserPurge2: 1     1171    2.38%
      0     0     1383.6572    17     1351.8157 UserPurge2: 1     1189    2.36%
      0     0     1383.4853    18     1351.8157 UserPurge2: 1     1197    2.34%
      0     0     1383.1546    19     1351.8157 UserPurge2: 1     1222    2.32%
      0     0     1382.9521    20     1351.8157 UserPurge2: 1     1243    2.30%
      0     0     1382.5481    20     1351.8157 UserPurge2: 1     1273    2.27%
      0     0     1382.3650    20     1351.8157 UserPurge2: 1     1290    2.26%
      0     0     1382.0828    21     1351.8157 UserPurge2: 1     1313    2.24%
      0     0     1381.7221    21     1351.8157 UserPurge2: 1     1341    2.21%
      0     0     1381.4889    22     1351.8157 UserPurge2: 1     1363    2.20%
      0     0     1381.4153    22     1351.8157 UserPurge2: 1     1374    2.19%
      0     0     1381.3278    23     1351.8157 UserPurge2: 1     1390    2.18%
      0     0     1380.9993    22     1351.8157 UserPurge2: 1     1416    2.16%
      0     0     1380.8566    23     1351.8157 UserPurge2: 1     1438    2.15%
      0     0     1380.3191    21     1351.8157 UserPurge2: 1     1479    2.11%
      0     0     1380.1602    22     1351.8157 UserPurge2: 1     1497    2.10%
      0     0     1379.6916    22     1351.8157 UserPurge2: 1     1527    2.06%
      0     0     1378.5090    19     1351.8157 UserPurge2: 1     1569    1.97%
      0     0     1378.3149    19     1351.8157 UserPurge2: 1     1591    1.96%
      0     0     1378.0147    19     1351.8157 UserPurge2: 1     1604    1.94%
      0     0     1377.7717    19     1351.8157 UserPurge2: 1     1624    1.92%
      0     0     1377.6107    19     1351.8157 UserPurge2: 1     1642    1.91%
      0     0     1377.3889    20     1351.8157 UserPurge2: 1     1655    1.89%
      0     0     1377.2484    20     1351.8157 UserPurge2: 1     1673    1.88%
      0     0     1377.1407    21     1351.8157 UserPurge2: 1     1693    1.87%
      0     0     1377.0007    21     1351.8157 UserPurge2: 1     1708    1.86%
      0     0     1376.7259    20     1351.8157 UserPurge2: 1     1735    1.84%
      0     0     1376.5479    21     1351.8157 UserPurge2: 1     1757    1.83%
      0     0     1376.3882    21     1351.8157 UserPurge2: 1     1779    1.82%
      0     0     1376.2989    22     1351.8157 UserPurge2: 1     1798    1.81%
      0     0     1376.2083    22     1351.8157 UserPurge2: 1     1823    1.80%
      0     0     1376.1561    23     1351.8157 UserPurge2: 1     1841    1.80%
      0     0     1376.0882    23     1351.8157 UserPurge2: 1     1859    1.80%
      0     0     1375.9733    24     1351.8157 UserPurge2: 1     1886    1.79%
      0     0     1375.8490    24     1351.8157 UserPurge2: 1     1913    1.78%
      0     0     1375.6170    24     1351.8157 UserPurge2: 1     1953    1.76%
      0     0     1375.2694    24     1351.8157 UserPurge2: 1     1976    1.73%
      0     0     1374.9583    24     1351.8157 UserPurge2: 1     2004    1.71%
      0     0     1374.7250    24     1351.8157 UserPurge2: 1     2023    1.69%
      0     0     1374.5867    23     1351.8157 UserPurge2: 1     2041    1.68%
      0     0     1374.4085    24     1351.8157 UserPurge2: 1     2067    1.67%
      0     0     1374.2378    24     1351.8157 UserPurge2: 1     2083    1.66%
      0     0     1374.0681    25     1351.8157 UserPurge2: 1     2109    1.65%
      0     0     1373.8992    25     1351.8157 UserPurge2: 1     2146    1.63%
      0     0     1373.6519    24     1351.8157 UserPurge2: 1     2174    1.62%
      0     0     1373.5043    25     1351.8157 UserPurge2: 1     2207    1.60%
      0     0     1372.9465    23     1351.8157 UserPurge2: 1     2237    1.56%
      0     0     1372.6741    24     1351.8157 UserPurge2: 1     2265    1.54%
      0     0     1372.5716    23     1351.8157 UserPurge2: 1     2278    1.54%
      0     0     1372.4775    24     1351.8157 UserPurge2: 1     2289    1.53%
      0     0     1372.3956    25     1351.8157 UserPurge2: 1     2310    1.52%
      0     0     1372.3588    25     1351.8157 UserPurge2: 1     2323    1.52%
      0     0     1372.3065    26     1351.8157 UserPurge2: 1     2341    1.52%
      0     0     1372.2674    27     1351.8157 UserPurge2: 1     2363    1.51%
      0     0     1372.1738    27     1351.8157 UserPurge2: 1     2392    1.51%
      0     0     1372.0684    26     1351.8157 UserPurge2: 1     2420    1.50%
      0     0     1372.0217    27     1351.8157 UserPurge2: 1     2439    1.49%
      0     0     1371.8325    25     1351.8157 UserPurge2: 1     2471    1.48%
      0     0     1371.5668    25     1351.8157 UserPurge2: 1     2498    1.46%
      0     0     1371.2926    23     1351.8157 UserPurge2: 1     2533    1.44%
      0     0     1371.1504    22     1351.8157 UserPurge2: 1     2558    1.43%
      0     0     1371.0725    23     1351.8157 UserPurge2: 1     2575    1.42%
      0     0     1370.9619    24     1351.8157 UserPurge2: 1     2593    1.42%
      0     0     1370.8270    23     1351.8157 UserPurge2: 1     2620    1.41%
*     0+    0                         1352.0994     1370.8270             1.39%
      0     0     1370.7932    23     1352.0994 UserPurge2: 1     2641    1.38%
      0     0     1370.7606    24     1352.0994 UserPurge2: 1     2656    1.38%
      0     0     1370.7276    25     1352.0994 UserPurge2: 1     2667    1.38%
      0     0     1370.6905    25     1352.0994 UserPurge2: 1     2683    1.37%
      0     0     1370.5749    26     1352.0994 UserPurge2: 1     2716    1.37%
      0     0     1370.3980    25     1352.0994 UserPurge2: 1     2750    1.35%
      0     0     1370.2785    25     1352.0994 UserPurge2: 1     2768    1.34%
      0     0     1370.1289    26     1352.0994 UserPurge2: 1     2794    1.33%
      0     0     1369.8665    26     1352.0994 UserPurge2: 1     2815    1.31%
      0     0     1369.5487    23     1352.0994 UserPurge2: 1     2842    1.29%
      0     0     1369.4152    23     1352.0994 UserPurge2: 1     2862    1.28%
      0     0     1369.3121    24     1352.0994 UserPurge2: 1     2879    1.27%
      0     0     1369.2656    25     1352.0994 UserPurge2: 1     2893    1.27%
      0     0     1369.2075    26     1352.0994 UserPurge2: 1     2912    1.27%
      0     0     1369.1453    27     1352.0994 UserPurge2: 1     2938    1.26%
      0     0     1369.0740    26     1352.0994 UserPurge2: 1     2961    1.26%
      0     0     1369.0388    27     1352.0994 UserPurge2: 1     2975    1.25%
      0     0     1368.9987    28     1352.0994 UserPurge2: 1     3004    1.25%
      0     0     1368.9593    28     1352.0994 UserPurge2: 1     3033    1.25%
      0     0     1368.9106    28     1352.0994 UserPurge2: 1     3058    1.24%
      0     0     1368.8352    28     1352.0994 UserPurge2: 1     3083    1.24%
      0     0     1368.6503    26     1352.0994 UserPurge2: 1     3111    1.22%
      0     0     1368.6067    27     1352.0994 UserPurge2: 1     3132    1.22%
      0     0     1368.3229    25     1352.0994 UserPurge2: 1     3165    1.20%
      0     0     1368.0532    24     1352.0994 UserPurge2: 1     3187    1.18%
      0     0     1367.9778    25     1352.0994 UserPurge2: 1     3198    1.17%
      0     0     1367.8781    24     1352.0994 UserPurge2: 1     3223    1.17%
      0     0     1367.8241    24     1352.0994 UserPurge2: 1     3239    1.16%
      0     0     1367.7945    25     1352.0994 UserPurge2: 1     3249    1.16%
      0     0     1367.7514    26     1352.0994 UserPurge2: 1     3260    1.16%
      0     0     1367.7119    26     1352.0994 UserPurge2: 1     3284    1.15%
      0     0     1367.6723    27     1352.0994 UserPurge2: 1     3309    1.15%
      0     0     1367.6301    28     1352.0994 UserPurge2: 1     3326    1.15%
      0     0     1367.5504    28     1352.0994 UserPurge2: 1     3346    1.14%
      0     0     1367.3029    25     1352.0994 UserPurge2: 1     3377    1.12%
      0     0     1367.1613    23     1352.0994 UserPurge2: 1     3398    1.11%
      0     0     1367.0910    24     1352.0994 UserPurge2: 1     3411    1.11%
*     0+    0                         1353.9995     1367.0910             0.97%
      0     0     1367.0342    25     1353.9995 UserPurge2: 1     3425    0.96%
      0     0     1366.9774    26     1353.9995 UserPurge2: 1     3448    0.96%
      0     0     1366.9544    26     1353.9995 UserPurge2: 1     3459    0.96%
      0     0     1366.9292    27     1353.9995 UserPurge2: 1     3479    0.95%
      0     0     1366.8679    27     1353.9995 UserPurge2: 1     3506    0.95%
      0     0     1366.7842    28     1353.9995 UserPurge2: 1     3529    0.94%
      0     0     1366.6891    28     1353.9995 UserPurge2: 1     3545    0.94%
      0     0     1366.6138    26     1353.9995 UserPurge2: 1     3569    0.93%
      0     0     1366.5269    25     1353.9995 UserPurge2: 1     3594    0.93%
      0     0     1366.5124    26     1353.9995 UserPurge2: 1     3611    0.92%
      0     0     1366.4994    27     1353.9995 UserPurge2: 1     3620    0.92%
      0     0     1366.4922    27     1353.9995 UserPurge2: 1     3635    0.92%
      0     0     1366.4815    28     1353.9995 UserPurge2: 1     3654    0.92%
      0     0     1366.4690    29     1353.9995 UserPurge2: 1     3675    0.92%
      0     0     1366.4576    30     1353.9995 UserPurge2: 1     3694    0.92%
      0     0     1366.4361    29     1353.9995 UserPurge2: 1     3718    0.92%
      0     0     1366.4205    30     1353.9995 UserPurge2: 1     3730    0.92%
      0     0     1366.3654    31     1353.9995 UserPurge2: 1     3766    0.91%
      0     0     1366.2490    29     1353.9995 UserPurge2: 1     3803    0.90%
      0     0     1366.1983    29     1353.9995 UserPurge2: 1     3817    0.90%
      0     0     1366.1081    29     1353.9995 UserPurge2: 1     3850    0.89%
      0     0     1365.9962    29     1353.9995 UserPurge2: 1     3873    0.89%
      0     0     1365.9670    29     1353.9995 UserPurge2: 1     3882    0.88%
      0     0     1365.8875    29     1353.9995 UserPurge2: 1     3919    0.88%
      0     0     1365.8582    30     1353.9995 UserPurge2: 1     3934    0.88%
      0     0     1365.8196    30     1353.9995 UserPurge2: 1     3960    0.87%
      0     0     1365.7928    31     1353.9995 UserPurge2: 1     3975    0.87%
      0     0     1365.7464    31     1353.9995 UserPurge2: 1     3999    0.87%
      0     0     1365.6752    31     1353.9995 UserPurge2: 1     4026    0.86%
      0     0     1365.6275    32     1353.9995 UserPurge2: 1     4052    0.86%
      0     0     1365.5552    32     1353.9995 UserPurge2: 1     4095    0.85%
      0     0     1365.3878    30     1353.9995 UserPurge2: 1     4142    0.84%
      0     0     1365.3116    29     1353.9995 UserPurge2: 1     4170    0.84%
      0     0     1365.2854    29     1353.9995 UserPurge2: 1     4188    0.83%
      0     0     1365.2561    30     1353.9995 UserPurge2: 1     4208    0.83%
      0     0     1365.2385    31     1353.9995 UserPurge2: 1     4224    0.83%
      0     0     1365.2277    32     1353.9995 UserPurge2: 1     4236    0.83%
      0     0     1365.1830    33     1353.9995 UserPurge2: 1     4260    0.83%
      0     0     1365.1579    34     1353.9995 UserPurge2: 1     4286    0.82%
      0     0     1365.1142    34     1353.9995 UserPurge2: 1     4308    0.82%
      0     0     1365.0894    34     1353.9995 UserPurge2: 1     4326    0.82%
      0     0     1365.0277    35     1353.9995 UserPurge2: 1     4357    0.81%
      0     0     1364.9789    34     1353.9995 UserPurge2: 1     4389    0.81%
      0     0     1364.9534    33     1353.9995 UserPurge2: 1     4405    0.81%
      0     0     1364.9169    34     1353.9995 UserPurge2: 1     4419    0.81%
      0     0     1364.8883    35     1353.9995 UserPurge2: 1     4449    0.80%
      0     0     1364.8560    35     1353.9995 UserPurge2: 1     4476    0.80%
      0     0     1364.7650    35     1353.9995 UserPurge2: 1     4507    0.80%
      0     0     1364.7414    35     1353.9995 UserPurge2: 1     4523    0.79%
      0     0     1364.6969    35     1353.9995 UserPurge2: 1     4554    0.79%
      0     0     1364.6380    36     1353.9995 UserPurge2: 1     4592    0.79%
      0     0     1364.4113    33     1353.9995 UserPurge2: 1     4648    0.77%
      0     0     1364.2620    32     1353.9995 UserPurge2: 1     4676    0.76%
      0     0     1364.1419    33     1353.9995 UserPurge2: 1     4707    0.75%
      0     0     1364.0846    31     1353.9995 UserPurge2: 1     4743    0.74%
      0     0     1364.0334    30     1353.9995 UserPurge2: 1     4765    0.74%
      0     0     1363.9886    31     1353.9995 UserPurge2: 1     4781    0.74%
      0     0     1363.9550    31     1353.9995 UserPurge2: 1     4805    0.74%
      0     0     1363.8833    31     1353.9995 UserPurge2: 1     4826    0.73%
      0     0     1363.8648    31     1353.9995 UserPurge2: 1     4837    0.73%
      0     0     1363.8208    32     1353.9995 UserPurge2: 1     4854    0.73%
      0     0     1363.8034    33     1353.9995 UserPurge2: 1     4867    0.72%
      0     0     1363.7792    34     1353.9995 UserPurge2: 1     4894    0.72%
      0     0     1363.7563    32     1353.9995 UserPurge2: 1     4915    0.72%
*     0+    0                         1355.0771     1363.7563             0.64%
      0     0     1363.6926    33     1355.0771 UserPurge2: 1     4953    0.64%
      0     0     1363.6623    31     1355.0771 UserPurge2: 1     4977    0.63%
      0     0     1363.6412    32     1355.0771 UserPurge2: 1     4995    0.63%
      0     0     1363.6112    32     1355.0771 UserPurge2: 1     5020    0.63%
      0     0     1363.5900    32     1355.0771 UserPurge2: 1     5031    0.63%
      0     0     1363.5617    33     1355.0771 UserPurge2: 1     5055    0.63%
      0     0     1363.5371    34     1355.0771 UserPurge2: 1     5069    0.62%
      0     0     1363.5087    33     1355.0771 UserPurge2: 1     5093    0.62%
      0     0     1363.4131    32     1355.0771 UserPurge2: 1     5125    0.62%
      0     0     1363.3355    30     1355.0771 UserPurge2: 1     5148    0.61%
      0     0     1363.2732    30     1355.0771 UserPurge2: 1     5169    0.60%
      0     0     1363.2490    30     1355.0771 UserPurge2: 1     5189    0.60%
      0     0     1363.2387    30     1355.0771 UserPurge2: 1     5200    0.60%
      0     0     1363.2256    31     1355.0771 UserPurge2: 1     5214    0.60%
      0     0     1363.2193    32     1355.0771 UserPurge2: 1     5225    0.60%
      0     0     1363.2021    33     1355.0771 UserPurge2: 1     5252    0.60%
      0     0     1363.1977    34     1355.0771 UserPurge2: 1     5261    0.60%
      0     0     1363.1796    35     1355.0771 UserPurge2: 1     5279    0.60%
      0     0     1363.1563    34     1355.0771 UserPurge2: 1     5300    0.60%
      0     0     1363.1263    35     1355.0771 UserPurge2: 1     5326    0.59%
      0     0     1363.0722    36     1355.0771 UserPurge2: 1     5356    0.59%
      0     0     1363.0398    36     1355.0771 UserPurge2: 1     5383    0.59%
      0     0     1363.0272    36     1355.0771 UserPurge2: 1     5405    0.59%
      0     0     1363.0025    37     1355.0771 UserPurge2: 1     5428    0.58%
      0     0     1362.9874    38     1355.0771 UserPurge2: 1     5451    0.58%
      0     0     1362.9606    39     1355.0771 UserPurge2: 1     5474    0.58%
      0     0     1362.8808    38     1355.0771 UserPurge2: 1     5517    0.58%
*     0+    0                         1355.0980     1362.8808             0.57%
      0     0     1362.8495    38     1355.0980 UserPurge2: 1     5534    0.57%
      0     0     1362.8183    38     1355.0980 UserPurge2: 1     5567    0.57%
      0     0     1362.7932    38     1355.0980 UserPurge2: 1     5583    0.57%
      0     0     1362.7626    39     1355.0980 UserPurge2: 1     5601    0.57%
      0     0     1362.6887    36     1355.0980 UserPurge2: 1     5644    0.56%
      0     0     1362.6197    34     1355.0980 UserPurge2: 1     5667    0.56%
      0     0     1362.5411    35     1355.0980 UserPurge2: 1     5689    0.55%
      0     0     1362.4749    33     1355.0980 UserPurge2: 1     5729    0.54%
      0     0     1362.4323    32     1355.0980 UserPurge2: 1     5748    0.54%
      0     0     1362.3954    33     1355.0980 UserPurge2: 1     5763    0.54%
      0     0     1362.3575    32     1355.0980 UserPurge2: 1     5791    0.54%
      0     0     1362.3032    31     1355.0980 UserPurge2: 1     5817    0.53%
      0     0     1362.2585    31     1355.0980 UserPurge2: 1     5837    0.53%
      0     0     1362.2351    31     1355.0980 UserPurge2: 1     5847    0.53%
      0     0     1362.2242    32     1355.0980 UserPurge2: 1     5857    0.53%
      0     0     1362.2021    33     1355.0980 UserPurge2: 1     5877    0.52%
      0     0     1362.1876    34     1355.0980 UserPurge2: 1     5889    0.52%
      0     0     1362.1605    33     1355.0980 UserPurge2: 1     5907    0.52%
*     0+    0                         1357.3150     1362.1605             0.36%

Repeating presolve.
Tried aggregator 1 time.
MIP Presolve eliminated 0 rows and 276 columns.
Reduced MIP has 1 rows, 725 columns, and 724 nonzeros.
Reduced MIP has 724 binaries, 0 generals, 0 SOSs, and 0 indicators.
Presolve time = 0.00 sec. (0.27 ticks)
Probing time = 0.00 sec. (0.08 ticks)
Tried aggregator 1 time.
Reduced MIP has 1 rows, 725 columns, and 724 nonzeros.
Reduced MIP has 724 binaries, 0 generals, 0 SOSs, and 0 indicators.
Presolve time = 0.00 sec. (0.22 ticks)
Represolve time = 0.10 sec. (43.86 ticks)
Probing time = 0.00 sec. (0.08 ticks)
MIP emphasis: balance optimality and feasibility.
MIP search method: dynamic search.
Parallel mode: none, using 1 thread.
Root relaxation solution time = 0.01 sec. (17.84 ticks)

        Nodes                                         Cuts/
   Node  Left     Objective  IInf  Best Integer    Best Bound    ItCnt     Gap

*     0+    0                         1357.3150     1362.1605             0.36%
      0     0     1362.1605    33     1357.3150     1362.1605     6046    0.36%
      0     0     1362.1382    33     1357.3150 UserPurge2: 1     6068    0.36%
      0     0     1362.1241    34     1357.3150 UserPurge2: 1     6085    0.35%
      0     0     1362.1117    35     1357.3150 UserPurge2: 1     6100    0.35%
      0     0     1362.1032    36     1357.3150 UserPurge2: 1     6124    0.35%
      0     0     1362.0818    37     1357.3150 UserPurge2: 1     6147    0.35%
      0     0     1361.9964    37     1357.3150 UserPurge2: 1     6175    0.34%
      0     0     1361.8940    33     1357.3150 UserPurge2: 1     6204    0.34%
      0     0     1361.8472    32     1357.3150 UserPurge2: 1     6226    0.33%
      0     0     1361.8168    31     1357.3150 UserPurge2: 1     6241    0.33%
      0     0     1361.7981    32     1357.3150 UserPurge2: 1     6248    0.33%
      0     0     1361.7931    33     1357.3150 UserPurge2: 1     6260    0.33%
      0     0     1361.7585    33     1357.3150 UserPurge2: 1     6281    0.33%
      0     0     1361.7342    33     1357.3150 UserPurge2: 1     6308    0.33%
      0     0     1361.7213    34     1357.3150 UserPurge2: 1     6325    0.32%
      0     0     1361.7052    34     1357.3150 UserPurge2: 1     6344    0.32%
      0     0     1361.6772    35     1357.3150 UserPurge2: 1     6383    0.32%
      0     0     1361.6663    34     1357.3150 UserPurge2: 1     6404    0.32%
      0     0     1361.6398    34     1357.3150 UserPurge2: 1     6429    0.32%
      0     0     1361.6237    35     1357.3150 UserPurge2: 1     6444    0.32%
      0     0     1361.6185    36     1357.3150 UserPurge2: 1     6456    0.32%
      0     0     1361.6107    37     1357.3150 UserPurge2: 1     6474    0.32%
      0     0     1361.5940    36     1357.3150 UserPurge2: 1     6494    0.32%
      0     0     1361.5710    37     1357.3150 UserPurge2: 1     6513    0.31%
      0     0     1361.5429    38     1357.3150 UserPurge2: 1     6538    0.31%
      0     0     1361.5097    38     1357.3150 UserPurge2: 1     6561    0.31%
      0     0     1361.4416    34     1357.3150 UserPurge2: 1     6586    0.30%
      0     0     1361.4136    34     1357.3150 UserPurge2: 1     6608    0.30%
      0     0     1361.4049    35     1357.3150 UserPurge2: 1     6619    0.30%
      0     0     1361.3851    34     1357.3150 UserPurge2: 1     6640    0.30%
      0     0     1361.3782    35     1357.3150 UserPurge2: 1     6661    0.30%
      0     0     1361.3678    36     1357.3150 UserPurge2: 1     6682    0.30%
      0     0     1361.3559    37     1357.3150 UserPurge2: 1     6700    0.30%
      0     0     1361.3472    38     1357.3150 UserPurge2: 1     6717    0.30%
      0     0     1361.3420    37     1357.3150 UserPurge2: 1     6737    0.30%
      0     0     1361.3263    37     1357.3150 UserPurge2: 1     6764    0.30%
      0     0     1361.2997    34     1357.3150 UserPurge2: 1     6791    0.29%
      0     0     1361.2895    35     1357.3150 UserPurge2: 1     6800    0.29%
      0     0     1361.2684    34     1357.3150 UserPurge2: 1     6830    0.29%
      0     0     1361.2616    35     1357.3150 UserPurge2: 1     6845    0.29%
      0     0     1361.2431    36     1357.3150 UserPurge2: 1     6870    0.29%
      0     0     1361.2304    37     1357.3150 UserPurge2: 1     6890    0.29%
      0     0     1361.2191    37     1357.3150 UserPurge2: 1     6911    0.29%
      0     0     1361.1633    35     1357.3150 UserPurge2: 1     6965    0.28%
      0     0     1361.1226    35     1357.3150 UserPurge2: 1     6982    0.28%
      0     0     1361.0625    33     1357.3150 UserPurge2: 1     7006    0.28%
      0     0     1361.0602    34     1357.3150 UserPurge2: 1     7012    0.28%
      0     0     1361.0482    34     1357.3150 UserPurge2: 1     7020    0.28%
      0     0     1361.0101    33     1357.3150 UserPurge2: 1     7038    0.27%
      0     0     1360.9986    33     1357.3150 UserPurge2: 1     7053    0.27%
      0     0     1360.9704    33     1357.3150 UserPurge2: 1     7074    0.27%
      0     0     1360.9476    34     1357.3150 UserPurge2: 1     7096    0.27%
      0     0     1360.9310    32     1357.3150 UserPurge2: 1     7116    0.27%
      0     0     1360.9215    32     1357.3150 UserPurge2: 1     7128    0.27%
      0     0     1360.9136    33     1357.3150 UserPurge2: 1     7144    0.27%
      0     0     1360.9076    34     1357.3150 UserPurge2: 1     7159    0.26%
      0     0     1360.9034    34     1357.3150 UserPurge2: 1     7169    0.26%
      0     0     1360.8966    34     1357.3150 UserPurge2: 1     7192    0.26%
      0     0     1360.8925    35     1357.3150 UserPurge2: 1     7201    0.26%
      0     0     1360.8877    36     1357.3150 UserPurge2: 1     7218    0.26%
      0     0     1360.8854    37     1357.3150 UserPurge2: 1     7232    0.26%
      0     0     1360.8810    38     1357.3150 UserPurge2: 1     7248    0.26%
      0     0     1360.8746    39     1357.3150 UserPurge2: 1     7266    0.26%
      0     0     1360.8626    38     1357.3150 UserPurge2: 1     7288    0.26%
      0     0     1360.8496    38     1357.3150 UserPurge2: 1     7302    0.26%
      0     0     1360.8127    36     1357.3150 UserPurge2: 1     7337    0.26%
      0     0     1360.7704    34     1357.3150 UserPurge2: 1     7380    0.25%
      0     0     1360.7526    32     1357.3150 UserPurge2: 1     7391    0.25%
      0     0     1360.7191    33     1357.3150 UserPurge2: 1     7417    0.25%
      0     0     1360.7023    33     1357.3150 UserPurge2: 1     7442    0.25%
      0     0     1360.6975    34     1357.3150 UserPurge2: 1     7450    0.25%
      0     0     1360.6920    35     1357.3150 UserPurge2: 1     7467    0.25%
      0     0     1360.6864    36     1357.3150 UserPurge2: 1     7475    0.25%
      0     0     1360.6741    36     1357.3150 UserPurge2: 1     7490    0.25%
      0     0     1360.6617    36     1357.3150 UserPurge2: 1     7516    0.25%
      0     0     1360.6596    37     1357.3150 UserPurge2: 1     7530    0.25%
      0     0     1360.6520    37     1357.3150 UserPurge2: 1     7556    0.25%
      0     0     1360.6452    36     1357.3150 UserPurge2: 1     7578    0.25%
      0     0     1360.6409    37     1357.3150 UserPurge2: 1     7595    0.25%
      0     0     1360.6363    38     1357.3150 UserPurge2: 1     7613    0.24%
      0     0     1360.6343    39     1357.3150 UserPurge2: 1     7628    0.24%
      0     0     1360.6268    39     1357.3150 UserPurge2: 1     7661    0.24%
      0     0     1360.6178    40     1357.3150 UserPurge2: 1     7682    0.24%
      0     0     1360.6064    39     1357.3150 UserPurge2: 1     7704    0.24%
      0     0     1360.5808    39     1357.3150 UserPurge2: 1     7728    0.24%
      0     0     1360.5671    38     1357.3150 UserPurge2: 1     7751    0.24%
      0     0     1360.5592    39     1357.3150 UserPurge2: 1     7770    0.24%
      0     0     1360.5470    39     1357.3150 UserPurge2: 1     7795    0.24%
      0     0     1360.5359    39     1357.3150 UserPurge2: 1     7819    0.24%
      0     0     1360.5310    40     1357.3150 UserPurge2: 1     7837    0.24%
      0     0     1360.5223    40     1357.3150 UserPurge2: 1     7866    0.24%
      0     0     1360.5009    40     1357.3150 UserPurge2: 1     7897    0.23%
      0     0     1360.4899    40     1357.3150 UserPurge2: 1     7916    0.23%
      0     0     1360.4734    39     1357.3150 UserPurge2: 1     7939    0.23%
      0     0     1360.4587    40     1357.3150 UserPurge2: 1     7961    0.23%
      0     0     1360.4501    41     1357.3150 UserPurge2: 1     7981    0.23%
      0     0     1360.4287    41     1357.3150 UserPurge2: 1     8007    0.23%
      0     0     1360.4001    40     1357.3150 UserPurge2: 1     8042    0.23%
      0     0     1360.3760    39     1357.3150 UserPurge2: 1     8073    0.23%
      0     0     1360.3517    38     1357.3150 UserPurge2: 1     8107    0.22%
      0     0     1360.3113    37     1357.3150 UserPurge2: 1     8145    0.22%
      0     0     1360.2980    38     1357.3150 UserPurge2: 1     8171    0.22%
      0     0     1360.2895    38     1357.3150 UserPurge2: 1     8188    0.22%
      0     0     1360.2845    39     1357.3150 UserPurge2: 1     8204    0.22%
      0     0     1360.2755    40     1357.3150 UserPurge2: 1     8218    0.22%
      0     0     1360.2720    41     1357.3150 UserPurge2: 1     8232    0.22%
      0     0     1360.2685    42     1357.3150 UserPurge2: 1     8251    0.22%
      0     0     1360.2656    43     1357.3150 UserPurge2: 1     8271    0.22%
      0     0     1360.2531    43     1357.3150 UserPurge2: 1     8293    0.22%
      0     0     1360.2233    39     1357.3150 UserPurge2: 1     8324    0.21%
      0     0     1360.2054    38     1357.3150 UserPurge2: 1     8351    0.21%
      0     0     1360.1968    39     1357.3150 UserPurge2: 1     8369    0.21%
      0     0     1360.1874    40     1357.3150 UserPurge2: 1     8394    0.21%
      0     0     1360.1720    41     1357.3150 UserPurge2: 1     8419    0.21%
      0     0     1360.1631    42     1357.3150 UserPurge2: 1     8434    0.21%
      0     0     1360.1473    42     1357.3150 UserPurge2: 1     8463    0.21%
      0     0     1360.1188    40     1357.3150 UserPurge2: 1     8499    0.21%
      0     0     1360.0829    38     1357.3150 UserPurge2: 1     8542    0.20%
      0     0     1360.0724    38     1357.3150 UserPurge2: 1     8563    0.20%
      0     0     1360.0593    39     1357.3150 UserPurge2: 1     8590    0.20%
      0     0     1360.0518    40     1357.3150 UserPurge2: 1     8606    0.20%
      0     0     1360.0290    40     1357.3150 UserPurge2: 1     8644    0.20%
      0     0     1360.0227    40     1357.3150 UserPurge2: 1     8656    0.20%
      0     0     1360.0167    41     1357.3150 UserPurge2: 1     8677    0.20%
      0     0     1360.0016    41     1357.3150 UserPurge2: 1     8704    0.20%
      0     0     1359.9875    40     1357.3150 UserPurge2: 1     8737    0.20%
      0     0     1359.9778    39     1357.3150 UserPurge2: 1     8755    0.20%
      0     2     1359.9778    39     1357.3150     1359.9775     8755    0.20%
Elapsed time = 27.22 sec. (4032.86 ticks, tree = 0.01 MB, solutions = 6)
*     1     1      integral     0     1357.9533     1359.9775    18330    0.15%
*     2     0      integral     0     1358.0000     1359.9775    21960    0.15%
      2     0     1358.0000     0     1358.0000     1358.0000    21960    0.00%

User cuts applied:  719

Root node processing (before b&c):
  Real time             =   27.22 sec. (4034.29 ticks)
Sequential b&c:
  Real time             =   16.88 sec. (4871.50 ticks)
                          ------------
Total (root+branch&cut) =   44.10 sec. (8905.79 ticks)
@Parameters: 
is_S_cut                                true
is_add_all_yinF                         true
is_start_value                          true
is_usercut                              true
is_visualization                        false
uc_only_rootnode                        false

data                                    Qi
fn                                      data/Qi/instance_500_1000.csv
mode                                    NewSubmodular
solver                                  cplex

p                                       10
r                                       10

EPS                                     1.0e-06
EPS_vio                                 1.0e-04
beta                                    0.10
gap                                     0.00
nodelimit                               Inf
timelimit                               7200.00


@PrintInfos
ItCnt: 21960
Current gap: 0.00 %
Termination Status: OPTIMAL
Primal Status: FEASIBLE_POINT
Solve Time: 44.10 sec
Objective Value: 1358.000000
Number of Nodes:      3

CutInfo: [phase] num / time (sec) 
ZLP             [phase1]     0 / 0.00 [rLC]     0 / 0.00 [rUC]     0 / 0.00 [sLC]     0 / 0.00 [sUC]     0 / 0.00 
OldSubmodular   [phase1]     0 / 0.00 [rLC]     0 / 0.00 [rUC]     0 / 0.00 [sLC]     0 / 0.00 [sUC]     0 / 0.00 
NewSubmodular   [phase1]     0 / 0.00 [rLC]   162 / 9.50 [rUC]   671 / 12.56 [sLC]     0 / 1.65 [sUC]   678 / 11.75 
PMP             [phase1]     0 / 0.00 [rLC]     8 / 6.08 [rUC]     0 / 0.00 [sLC]     2 / 1.63 [sUC]     0 / 0.00 
Separation Round: [phase1] 0  [rLC] 132  [rUC] 397  [sLC] 2  [sUC] 339
Root Best Bound 1358.000000
Root Best Integer: 1358.000000
Best Bound: 1358.000000
Best Integer: 1358.000000

